\ENCODING=ISO-8859-1
\Problem name: IloCplex

Minimize
 obj1: 1.2523721722329 x1 - 0.252372172232903 x2 + 1.2523721722329 x3
       - 0.252372172232903 x4 + 1.2523721722329 x5 - 0.252372172232903 x6
       + 1.2523721722329 x7 - 0.252372172232903 x8 + 1.2523721722329 x9
       - 0.252372172232903 x10 + 3.44914585173035 x11 - 2.44914585173035 x12
       + 1.2523721722329 x13 - 0.252372172232903 x14 + 3.44914585173035 x15
       - 2.44914585173035 x16 + 3.44914585173035 x17 - 2.44914585173035 x18
       + 1.2523721722329 x19 - 0.252372172232903 x20 + 3.44914585173035 x21
       - 2.44914585173035 x22 + 32.7615928649902
Subject To
 c1:   x2 >= 0.06
 c2:   x4 >= 0.84
 c3:   x6 >= 0.46
 c4:   x8 >= 0.82
 c5:   x10 >= 1.39
 c6:   x12 >= 1.12
 c7:   x14 >= 1.11
 c8:   x16 >= 2.5
 c9:   x18 >= 3.1
 c10:  x20 >= 3.46
 c11:  x22 >= 3.16
 c12:  0.252372172232903 x1 + 0.747627827767097 x2 - x12 <= -2
 c13:  0.252372172232903 x3 + 0.747627827767097 x4 - x18 <= -2
 c14:  0.252372172232903 x3 + 0.747627827767097 x4 - x22 <= -2
 c15:  0.252372172232903 x7 + 0.747627827767097 x8 - x14 <= -2
 c16:  2.44914585173035 x17 - 1.44914585173035 x18 - x22 <= -4.69039821624756
 c17:  x1 - x2 >= 1.32080066666667
 c18:  x1 - x2 <= 6.60400333333333
 c19:  x3 - x4 >= 1.32080066666667
 c20:  x3 - x4 <= 6.60400333333333
 c21:  x5 - x6 >= 1.32080066666667
 c22:  x5 - x6 <= 6.60400333333333
 c23:  x7 - x8 >= 1.32080066666667
 c24:  x7 - x8 <= 6.60400333333333
 c25:  x9 - x10 >= 1.32080066666667
 c26:  x9 - x10 <= 6.60400333333333
 c27:  x11 - x12 >= 0.319186
 c28:  x11 - x12 <= 1.59593
 c29:  x13 - x14 >= 1.32080066666667
 c30:  x13 - x14 <= 6.60400333333333
 c31:  x15 - x16 >= 0.319186
 c32:  x15 - x16 <= 1.59593
 c33:  x17 - x18 >= 0.319186
 c34:  x17 - x18 <= 1.59593
 c35:  x19 - x20 >= 1.32080066666667
 c36:  x19 - x20 <= 6.60400333333333
 c37:  x21 - x22 >= 0.319186
 c38:  x21 - x22 <= 1.59593
 c39:  - 3.048 x1 - 16.76401 x2 + 19.81201 x23  = 0
 c40:  - 7.62 x1 - 12.19201 x2 + 19.81201 x24  = 0
 c41:  - 8.00715 x1 - 11.80486 x2 + 19.81201 x25  = 0
 c42:  - 11.80486 x1 - 8.00715 x2 + 19.81201 x26  = 0
 c43:  - 12.19201 x1 - 7.62 x2 + 19.81201 x27  = 0
 c44:  - 16.76401 x1 - 3.048 x2 + 19.81201 x28  = 0
 c45:  - 3.048 x3 - 16.76401 x4 + 19.81201 x29  = 0
 c46:  - 7.62 x3 - 12.19201 x4 + 19.81201 x30  = 0
 c47:  - 8.00715 x3 - 11.80486 x4 + 19.81201 x31  = 0
 c48:  - 11.80486 x3 - 8.00715 x4 + 19.81201 x32  = 0
 c49:  - 12.19201 x3 - 7.62 x4 + 19.81201 x33  = 0
 c50:  - 16.76401 x3 - 3.048 x4 + 19.81201 x34  = 0
 c51:  - 3.048 x5 - 16.76401 x6 + 19.81201 x35  = 0
 c52:  - 7.62 x5 - 12.19201 x6 + 19.81201 x36  = 0
 c53:  - 9.51738 x5 - 10.29463 x6 + 19.81201 x37  = 0
 c54:  - 10.29463 x5 - 9.51738 x6 + 19.81201 x38  = 0
 c55:  - 12.19201 x5 - 7.62 x6 + 19.81201 x39  = 0
 c56:  - 16.76401 x5 - 3.048 x6 + 19.81201 x40  = 0
 c57:  - 3.048 x7 - 16.76401 x8 + 19.81201 x41  = 0
 c58:  - 7.62 x7 - 12.19201 x8 + 19.81201 x42  = 0
 c59:  - 9.51738 x7 - 10.29463 x8 + 19.81201 x43  = 0
 c60:  - 10.29463 x7 - 9.51738 x8 + 19.81201 x44  = 0
 c61:  - 12.19201 x7 - 7.62 x8 + 19.81201 x45  = 0
 c62:  - 16.76401 x7 - 3.048 x8 + 19.81201 x46  = 0
 c63:  - 3.048 x9 - 16.76401 x10 + 19.81201 x47  = 0
 c64:  - 7.62 x9 - 12.19201 x10 + 19.81201 x48  = 0
 c65:  - 9.51738 x9 - 10.29463 x10 + 19.81201 x49  = 0
 c66:  - 10.29463 x9 - 9.51738 x10 + 19.81201 x50  = 0
 c67:  - 12.19201 x9 - 7.62 x10 + 19.81201 x51  = 0
 c68:  - 16.76401 x9 - 3.048 x10 + 19.81201 x52  = 0
 c69:  - 3.048 x13 - 16.76401 x14 + 19.81201 x53  = 0
 c70:  - 7.62 x13 - 12.19201 x14 + 19.81201 x54  = 0
 c71:  - 9.51738 x13 - 10.29463 x14 + 19.81201 x55  = 0
 c72:  - 10.29463 x13 - 9.51738 x14 + 19.81201 x56  = 0
 c73:  - 12.19201 x13 - 7.62 x14 + 19.81201 x57  = 0
 c74:  - 16.76401 x13 - 3.048 x14 + 19.81201 x58  = 0
 c75:  - 3.048 x19 - 16.76401 x20 + 19.81201 x59  = 0
 c76:  - 7.62 x19 - 12.19201 x20 + 19.81201 x60  = 0
 c77:  - 9.51738 x19 - 10.29463 x20 + 19.81201 x61  = 0
 c78:  - 10.29463 x19 - 9.51738 x20 + 19.81201 x62  = 0
 c79:  - 12.19201 x19 - 7.62 x20 + 19.81201 x63  = 0
 c80:  - 16.76401 x19 - 3.048 x20 + 19.81201 x64  = 0
 c81:  0.252372172232903 x1 + 0.747627827767097 x2 - x12 <= -2
 c82:  0.252372172232903 x3 + 0.747627827767097 x4 - x18 <= -2
 c83:  0.252372172232903 x3 + 0.747627827767097 x4 - x22 <= -2
 c84:  0.252372172232903 x7 + 0.747627827767097 x8 - x14 <= -2
 c85:  0.252372172232903 x7 - 0.252372172232903 x8 + x41 - x53 <= -2
 c86:  0.252372172232903 x7 - 0.252372172232903 x8 + x42 - x54 <= -2
 c87:  0.252372172232903 x7 - 0.252372172232903 x8 + x43 - x55 <= -2
 c88:  0.252372172232903 x7 - 0.252372172232903 x8 + x44 - x56 <= -2
 c89:  0.252372172232903 x7 - 0.252372172232903 x8 + x45 - x57 <= -2
 c90:  0.252372172232903 x7 - 0.252372172232903 x8 + x46 - x58 <= -2
 c91:  1.2523721722329 x7 - 0.252372172232903 x8 - x13 <= -2
 c92:  2.44914585173035 x17 - 1.44914585173035 x18 - x22 <= -4.69039821624756
 c93:  3.44914585173035 x17 - 2.44914585173035 x18 - x21 <= -4.69039821624756
 c94:  0.252372172232903 x1 - 0.252372172232903 x2 + x28 - x29 + 10000 x65
       <= 9998
 c95:  0.252372172232903 x1 - 0.252372172232903 x2 + x27 - x35 + 10000 x66
       <= 9998
 c96:  1.2523721722329 x1 - 0.252372172232903 x2 - x17 + 10000 x67 <= 9998
 c97:  0.252372172232903 x1 - 0.252372172232903 x2 + x24 - x64 + 10000 x68
       <= 9998
 c98:  1.2523721722329 x1 - 0.252372172232903 x2 - x21 + 10000 x69 <= 9998
 c99:  0.252372172232903 x3 - 0.252372172232903 x4 - x28 + x29 + 10000 x70
       <= 9998
 c100: 0.252372172232903 x3 - 0.252372172232903 x4 + x33 - x41 + 10000 x71
       <= 9998
 c101: 0.252372172232903 x3 - 0.252372172232903 x4 + x30 - x52 + 10000 x72
       <= 9998
 c102: 0.252372172232903 x3 - 0.252372172232903 x4 + x33 - x53 + 10000 x73
       <= 9998
 c103: 0.252372172232903 x5 - 0.252372172232903 x6 - x27 + x35 + 10000 x74
       <= 9998
 c104: 0.252372172232903 x5 - 0.252372172232903 x6 + x39 - x42 + 10000 x75
       <= 9998
 c105: 0.252372172232903 x5 - 0.252372172232903 x6 + x36 - x51 + 10000 x76
       <= 9998
 c106: 0.252372172232903 x5 - 0.252372172232903 x6 + x39 - x54 + 10000 x77
       <= 9998
 c107: 0.252372172232903 x7 - 0.252372172232903 x8 - x33 + x41 + 10000 x78
       <= 9998
 c108: 0.252372172232903 x7 - 0.252372172232903 x8 - x39 + x42 + 10000 x79
       <= 9998
 c109: 0.252372172232903 x7 - 0.252372172232903 x8 + x45 - x60 + 10000 x80
       <= 9998
 c110: 0.252372172232903 x9 - 0.252372172232903 x10 - x30 + x52 + 10000 x81
       <= 9998
 c111: 0.252372172232903 x9 - 0.252372172232903 x10 - x36 + x51 + 10000 x82
       <= 9998
 c112: 0.252372172232903 x9 - 0.252372172232903 x10 + x48 - x63 + 10000 x83
       <= 9998
 c113: 0.252372172232903 x13 - 0.252372172232903 x14 - x33 + x53 + 10000 x84
       <= 9998
 c114: 0.252372172232903 x13 - 0.252372172232903 x14 - x39 + x54 + 10000 x85
       <= 9998
 c115: 0.252372172232903 x13 - 0.252372172232903 x14 + x57 - x60 + 10000 x86
       <= 9998
 c116: - x1 + 3.44914585173035 x17 - 2.44914585173035 x18 + 10000 x87
       <= 9995.30960178375
 c117: 0.252372172232903 x19 - 0.252372172232903 x20 - x24 + x64 + 10000 x88
       <= 9998
 c118: 0.252372172232903 x19 - 0.252372172232903 x20 - x45 + x60 + 10000 x89
       <= 9998
 c119: 0.252372172232903 x19 - 0.252372172232903 x20 - x48 + x63 + 10000 x90
       <= 9998
 c120: 0.252372172232903 x19 - 0.252372172232903 x20 - x57 + x60 + 10000 x91
       <= 9998
 c121: - x1 + 3.44914585173035 x21 - 2.44914585173035 x22 + 10000 x92
       <= 9995.30960178375
 c122: x65 + x70  = 1
 c123: x66 + x74  = 1
 c124: x67 + x87  = 1
 c125: x68 + x88  = 1
 c126: x69 + x92  = 1
 c127: x71 + x78  = 1
 c128: x72 + x81  = 1
 c129: x73 + x84  = 1
 c130: x75 + x79  = 1
 c131: x76 + x82  = 1
 c132: x77 + x85  = 1
 c133: x80 + x89  = 1
 c134: x83 + x90  = 1
 c135: x86 + x91  = 1
Bounds
 0 <= x1 <= 1000000
 0 <= x2 <= 1000000
 0 <= x3 <= 1000000
 0 <= x4 <= 1000000
 0 <= x5 <= 1000000
 0 <= x6 <= 1000000
 0 <= x7 <= 1000000
 0 <= x8 <= 1000000
 0 <= x9 <= 1000000
 0 <= x10 <= 1000000
 0 <= x11 <= 1000000
 0 <= x12 <= 1000000
 0 <= x13 <= 1000000
 0 <= x14 <= 1000000
 0 <= x15 <= 1000000
 0 <= x16 <= 1000000
 0 <= x17 <= 1000000
 0 <= x18 <= 1000000
 0 <= x19 <= 1000000
 0 <= x20 <= 1000000
 0 <= x21 <= 1000000
 0 <= x22 <= 1000000
 0 <= x23 <= 1000000
 0 <= x24 <= 1000000
 0 <= x25 <= 1000000
 0 <= x26 <= 1000000
 0 <= x27 <= 1000000
 0 <= x28 <= 1000000
 0 <= x29 <= 1000000
 0 <= x30 <= 1000000
 0 <= x31 <= 1000000
 0 <= x32 <= 1000000
 0 <= x33 <= 1000000
 0 <= x34 <= 1000000
 0 <= x35 <= 1000000
 0 <= x36 <= 1000000
 0 <= x37 <= 1000000
 0 <= x38 <= 1000000
 0 <= x39 <= 1000000
 0 <= x40 <= 1000000
 0 <= x41 <= 1000000
 0 <= x42 <= 1000000
 0 <= x43 <= 1000000
 0 <= x44 <= 1000000
 0 <= x45 <= 1000000
 0 <= x46 <= 1000000
 0 <= x47 <= 1000000
 0 <= x48 <= 1000000
 0 <= x49 <= 1000000
 0 <= x50 <= 1000000
 0 <= x51 <= 1000000
 0 <= x52 <= 1000000
 0 <= x53 <= 1000000
 0 <= x54 <= 1000000
 0 <= x55 <= 1000000
 0 <= x56 <= 1000000
 0 <= x57 <= 1000000
 0 <= x58 <= 1000000
 0 <= x59 <= 1000000
 0 <= x60 <= 1000000
 0 <= x61 <= 1000000
 0 <= x62 <= 1000000
 0 <= x63 <= 1000000
 0 <= x64 <= 1000000
 0 <= x65 <= 1
 0 <= x66 <= 1
 0 <= x67 <= 1
 0 <= x68 <= 1
 0 <= x69 <= 1
 0 <= x70 <= 1
 0 <= x71 <= 1
 0 <= x72 <= 1
 0 <= x73 <= 1
 0 <= x74 <= 1
 0 <= x75 <= 1
 0 <= x76 <= 1
 0 <= x77 <= 1
 0 <= x78 <= 1
 0 <= x79 <= 1
 0 <= x80 <= 1
 0 <= x81 <= 1
 0 <= x82 <= 1
 0 <= x83 <= 1
 0 <= x84 <= 1
 0 <= x85 <= 1
 0 <= x86 <= 1
 0 <= x87 <= 1
 0 <= x88 <= 1
 0 <= x89 <= 1
 0 <= x90 <= 1
 0 <= x91 <= 1
 0 <= x92 <= 1
Binaries
 x65  x66  x67  x68  x69  x70  x71  x72  x73  x74  x75  x76  x77  x78  x79 
 x80  x81  x82  x83  x84  x85  x86  x87  x88  x89  x90  x91  x92 
End
